\ENCODING=ISO-8859-1
\Problem name: ilog.cplex

Minimize
 obj: 1073741823.5 x1 + 1073741823.5 x2 + 1073741823.5 x3 + 2 x4 + 2 x5 + 2 x6
      + 4 x7 + 4 x8 + 4 x9 + 3 x10 + 3 x11 + 3 x12 + 5 x13 + 5 x14 + 5 x15
      + 2 x16 + 2 x17 + 2 x18 + 1073741823.5 x19 + 1073741823.5 x20
      + 1073741823.5 x21 + 3 x22 + 3 x23 + 3 x24 + 2 x25 + 2 x26 + 2 x27
      + 3 x28 + 3 x29 + 3 x30 + 4 x31 + 4 x32 + 4 x33 + 3 x34 + 3 x35 + 3 x36
      + 1073741823.5 x37 + 1073741823.5 x38 + 1073741823.5 x39 + x40 + x41
      + x42 + 2 x43 + 2 x44 + 2 x45 + 3 x46 + 3 x47 + 3 x48 + 2 x49 + 2 x50
      + 2 x51 + x52 + x53 + x54 + 1073741823.5 x55 + 1073741823.5 x56
      + 1073741823.5 x57 + 3 x58 + 3 x59 + 3 x60 + 10 x61 + 10 x62 + 10 x63
      + 2 x64 + 2 x65 + 2 x66 + 0 x203 + 0 x204 + 0 x211 + 0 x217 + 0 x223
      + 0 x293 + 0 x294 + 0 x301 + 0 x307 + 0 x313 + 0 x383 + 0 x384 + 0 x391
      + 0 x397 + 0 x403
Subject To
 c1:   x1  = 0
 c3:   x19  = 0
 c5:   x37  = 0
 c7:   x55  = 0
 c9:   x133  = 0
 c11:  x2  = 0
 c13:  x20  = 0
 c15:  x38  = 0
 c17:  x56  = 0
 c19:  x135  = 0
 c21:  x3  = 0
 c23:  x21  = 0
 c25:  x39  = 0
 c27:  x57  = 0
 c29:  x137  = 0
 c31:  x1 + x2 + x3 + x16 + x17 + x18 + x31 + x32 + x33 + x46 + x47 + x48
       + x139 + x140 + x141  = 1
 c33:  x4 + x5 + x6 + x19 + x20 + x21 + x34 + x35 + x36 + x49 + x50 + x51
       + x145 + x146 + x147  = 1
 c35:  x7 + x8 + x9 + x22 + x23 + x24 + x37 + x38 + x39 + x52 + x53 + x54
       + x151 + x152 + x153  = 1
 c37:  x10 + x11 + x12 + x25 + x26 + x27 + x40 + x41 + x42 + x55 + x56 + x57
       + x157 + x158 + x159  = 1
 c39:  x61 + x164  = 1
 c41:  x163 - x164 >= 0
 c43:  - x61 + x168  = 0
 c45:  x167 - x168 >= 0
 c47:  - x139 + x171  = 0
 c49:  - x61 + x172  = 0
 c51:  x171 - x172 >= 0
 c53:  x62 + x176  = 1
 c55:  x175 - x176 >= 0
 c57:  - x62 + x180  = 0
 c59:  x179 - x180 >= 0
 c61:  - x152 + x183  = 0
 c63:  - x62 + x184  = 0
 c65:  x183 - x184 >= 0
 c67:  x63 + x188  = 1
 c69:  x187 - x188 >= 0
 c71:  - x63 + x192  = 0
 c73:  x191 - x192 >= 0
 c75:  - x159 + x195  = 0
 c77:  - x63 + x196  = 0
 c79:  x195 - x196 >= 0
 c81:  x1 + 2 x4 + 3 x7 + 4 x10 + x16 + 2 x19 + 3 x22 + 4 x25 + x31 + 2 x34
       + 3 x37 + 4 x40 + x46 + 2 x49 + 3 x52 + 4 x55 + x139 + 2 x145 + 3 x151
       + 4 x157 <= 5
 c83:  x2 + 2 x5 + 3 x8 + 4 x11 + x17 + 2 x20 + 3 x23 + 4 x26 + x32 + 2 x35
       + 3 x38 + 4 x41 + x47 + 2 x50 + 3 x53 + 4 x56 + x140 + 2 x146 + 3 x152
       + 4 x158 <= 5
 c85:  x3 + 2 x6 + 3 x9 + 4 x12 + x18 + 2 x21 + 3 x24 + 4 x27 + x33 + 2 x36
       + 3 x39 + 4 x42 + x48 + 2 x51 + 3 x54 + 4 x57 + x141 + 2 x147 + 3 x153
       + 4 x159 <= 5
 c87:  - x4 - x7 - x10 - x13 + x16 + x31 + x46 + x139  = 0
 c89:  x4 - x16 - x22 - x25 - x28 + x34 + x49 + x145  = 0
 c91:  x7 + x22 - x31 - x34 - x40 - x43 + x52 + x151  = 0
 c93:  x10 + x25 + x40 - x46 - x49 - x52 - x58 + x157  = 0
 c95:   = 0
 c97:  - x5 - x8 - x11 - x14 + x17 + x32 + x47 + x140  = 0
 c99:  x5 - x17 - x23 - x26 - x29 + x35 + x50 + x146  = 0
 c101: x8 + x23 - x32 - x35 - x41 - x44 + x53 + x152  = 0
 c103: x11 + x26 + x41 - x47 - x50 - x53 - x59 + x158  = 0
 c105:  = 0
 c107: - x6 - x9 - x12 - x15 + x18 + x33 + x48 + x141  = 0
 c109: x6 - x18 - x24 - x27 - x30 + x36 + x51 + x147  = 0
 c111: x9 + x24 - x33 - x36 - x42 - x45 + x54 + x153  = 0
 c113: x12 + x27 + x42 - x48 - x51 - x54 - x60 + x159  = 0
 c115:  = 0
 c117: - x61 + x133 + x139 + x145 + x151 + x157  = 0
 c119: - x62 + x135 + x140 + x146 + x152 + x158  = 0
 c121: - x63 + x137 + x141 + x147 + x153 + x159  = 0
 c123: x13 + x28 + x43 + x58 - x61 + x133  = 0
 c125: x14 + x29 + x44 + x59 - x62 + x135  = 0
 c127: x15 + x30 + x45 + x60 - x63 + x137  = 0
 c129: - x4 + x200  = 0
 c131: x199 - x200 >= 0
 c133: - x7 + x208  = 0
 c135: x207 - x208 >= 0
 c137: - x10 + x214  = 0
 c139: x213 - x214 >= 0
 c141: - x13 + x220  = 0
 c143: x219 - x220 >= 0
 c145: - x16 + x226  = 0
 c147: x225 - x226 >= 0
 c149: - x22 + x230  = 0
 c151: x229 - x230 >= 0
 c153: - x25 + x234  = 0
 c155: x233 - x234 >= 0
 c157: - x28 + x238  = 0
 c159: x237 - x238 >= 0
 c161: - x31 + x242  = 0
 c163: x241 - x242 >= 0
 c165: - x34 + x246  = 0
 c167: x245 - x246 >= 0
 c169: - x40 + x250  = 0
 c171: x249 - x250 >= 0
 c173: - x43 + x254  = 0
 c175: x253 - x254 >= 0
 c177: - x46 + x258  = 0
 c179: x257 - x258 >= 0
 c181: - x49 + x262  = 0
 c183: x261 - x262 >= 0
 c185: - x52 + x266  = 0
 c187: x265 - x266 >= 0
 c189: - x58 + x270  = 0
 c191: x269 - x270 >= 0
 c193: - x139 + x274  = 0
 c195: x273 - x274 >= 0
 c197: - x145 + x278  = 0
 c199: x277 - x278 >= 0
 c201: - x151 + x282  = 0
 c203: x281 - x282 >= 0
 c205: - x157 + x286  = 0
 c207: x285 - x286 >= 0
 c209: - x5 + x290  = 0
 c211: x289 - x290 >= 0
 c213: - x8 + x298  = 0
 c215: x297 - x298 >= 0
 c217: - x11 + x304  = 0
 c219: x303 - x304 >= 0
 c221: - x14 + x310  = 0
 c223: x309 - x310 >= 0
 c225: - x17 + x316  = 0
 c227: x315 - x316 >= 0
 c229: - x23 + x320  = 0
 c231: x319 - x320 >= 0
 c233: - x26 + x324  = 0
 c235: x323 - x324 >= 0
 c237: - x29 + x328  = 0
 c239: x327 - x328 >= 0
 c241: - x32 + x332  = 0
 c243: x331 - x332 >= 0
 c245: - x35 + x336  = 0
 c247: x335 - x336 >= 0
 c249: - x41 + x340  = 0
 c251: x339 - x340 >= 0
 c253: - x44 + x344  = 0
 c255: x343 - x344 >= 0
 c257: - x47 + x348  = 0
 c259: x347 - x348 >= 0
 c261: - x50 + x352  = 0
 c263: x351 - x352 >= 0
 c265: - x53 + x356  = 0
 c267: x355 - x356 >= 0
 c269: - x59 + x360  = 0
 c271: x359 - x360 >= 0
 c273: - x140 + x364  = 0
 c275: x363 - x364 >= 0
 c277: - x146 + x368  = 0
 c279: x367 - x368 >= 0
 c281: - x152 + x372  = 0
 c283: x371 - x372 >= 0
 c285: - x158 + x376  = 0
 c287: x375 - x376 >= 0
 c289: - x6 + x380  = 0
 c291: x379 - x380 >= 0
 c293: - x9 + x388  = 0
 c295: x387 - x388 >= 0
 c297: - x12 + x394  = 0
 c299: x393 - x394 >= 0
 c301: - x15 + x400  = 0
 c303: x399 - x400 >= 0
 c305: - x18 + x406  = 0
 c307: x405 - x406 >= 0
 c309: - x24 + x410  = 0
 c311: x409 - x410 >= 0
 c313: - x27 + x414  = 0
 c315: x413 - x414 >= 0
 c317: - x30 + x418  = 0
 c319: x417 - x418 >= 0
 c321: - x33 + x422  = 0
 c323: x421 - x422 >= 0
 c325: - x36 + x426  = 0
 c327: x425 - x426 >= 0
 c329: - x42 + x430  = 0
 c331: x429 - x430 >= 0
 c333: - x45 + x434  = 0
 c335: x433 - x434 >= 0
 c337: - x48 + x438  = 0
 c339: x437 - x438 >= 0
 c341: - x51 + x442  = 0
 c343: x441 - x442 >= 0
 c345: - x54 + x446  = 0
 c347: x445 - x446 >= 0
 c349: - x60 + x450  = 0
 c351: x449 - x450 >= 0
 c353: - x141 + x454  = 0
 c355: x453 - x454 >= 0
 c357: - x147 + x458  = 0
 c359: x457 - x458 >= 0
 c361: - x153 + x462  = 0
 c363: x461 - x462 >= 0
 c365: - x159 + x466  = 0
 c367: x465 - x466 >= 0
 c369: x469 - x470 >= 0
 c371: x473 - x474 >= 0
 c373: x477 - x478 >= 0
 IloI0:  x163 = 1 <-> x1 + x4 + x7 + x10 + x13 + x16 + x19 + x22 + x25 + x28
         + x31 + x34 + x37 + x40 + x43 + x46 + x49 + x52 + x55 + x58 + x139
         + x145 + x151 + x157 + x133 <= 0
 IloI1:  x167 = 1 <-> x1 + x4 + x7 + x10 + x13 + x16 + x19 + x22 + x25 + x28
         + x31 + x34 + x37 + x40 + x43 + x46 + x49 + x52 + x55 + x58 + x139
         + x145 + x151 + x157 + x133 >= 2
 IloI2:  x175 = 1 <-> x2 + x5 + x8 + x11 + x14 + x17 + x20 + x23 + x26 + x29
         + x32 + x35 + x38 + x41 + x44 + x47 + x50 + x53 + x56 + x59 + x140
         + x146 + x152 + x158 + x135 <= 0
 IloI3:  x179 = 1 <-> x2 + x5 + x8 + x11 + x14 + x17 + x20 + x23 + x26 + x29
         + x32 + x35 + x38 + x41 + x44 + x47 + x50 + x53 + x56 + x59 + x140
         + x146 + x152 + x158 + x135 >= 2
 IloI4:  x187 = 1 <-> x3 + x6 + x9 + x12 + x15 + x18 + x21 + x24 + x27 + x30
         + x33 + x36 + x39 + x42 + x45 + x48 + x51 + x54 + x57 + x60 + x141
         + x147 + x153 + x159 + x137 <= 0
 IloI5:  x191 = 1 <-> x3 + x6 + x9 + x12 + x15 + x18 + x21 + x24 + x27 + x30
         + x33 + x36 + x39 + x42 + x45 + x48 + x51 + x54 + x57 + x60 + x141
         + x147 + x153 + x159 + x137 >= 2
 IloI6:  x199 = 1 <-> x203 - x204  = 2
 IloI7:  x207 = 1 <-> x211 - x204  = 4
 IloI8:  x213 = 1 <-> x217 - x204  = 3
 IloI9:  x219 = 1 <-> x223 - x204  = 5
 IloI10: x225 = 1 <-> x204 - x203  = 2
 IloI11: x229 = 1 <-> x211 - x203  = 3
 IloI12: x233 = 1 <-> x217 - x203  = 2
 IloI13: x237 = 1 <-> x223 - x203  = 3
 IloI14: x241 = 1 <-> x204 - x211  = 4
 IloI15: x245 = 1 <-> x203 - x211  = 3
 IloI16: x249 = 1 <-> x217 - x211  = 1
 IloI17: x253 = 1 <-> x223 - x211  = 2
 IloI18: x257 = 1 <-> x204 - x217  = 3
 IloI19: x261 = 1 <-> x203 - x217  = 2
 IloI20: x265 = 1 <-> x211 - x217  = 1
 IloI21: x269 = 1 <-> x223 - x217  = 3
 IloI22: x273 = 1 <-> x204  = 4
 IloI23: x277 = 1 <-> x203  = 1
 IloI24: x281 = 1 <-> x211  = 2
 IloI25: x285 = 1 <-> x217  = 3
 IloI26: x289 = 1 <-> x293 - x294  = 2
 IloI27: x297 = 1 <-> x301 - x294  = 4
 IloI28: x303 = 1 <-> x307 - x294  = 3
 IloI29: x309 = 1 <-> x313 - x294  = 5
 IloI30: x315 = 1 <-> x294 - x293  = 2
 IloI31: x319 = 1 <-> x301 - x293  = 3
 IloI32: x323 = 1 <-> x307 - x293  = 2
 IloI33: x327 = 1 <-> x313 - x293  = 3
 IloI34: x331 = 1 <-> x294 - x301  = 4
 IloI35: x335 = 1 <-> x293 - x301  = 3
 IloI36: x339 = 1 <-> x307 - x301  = 1
 IloI37: x343 = 1 <-> x313 - x301  = 2
 IloI38: x347 = 1 <-> x294 - x307  = 3
 IloI39: x351 = 1 <-> x293 - x307  = 2
 IloI40: x355 = 1 <-> x301 - x307  = 1
 IloI41: x359 = 1 <-> x313 - x307  = 3
 IloI42: x363 = 1 <-> x294  = 4
 IloI43: x367 = 1 <-> x293  = 1
 IloI44: x371 = 1 <-> x301  = 2
 IloI45: x375 = 1 <-> x307  = 3
 IloI46: x379 = 1 <-> x383 - x384  = 2
 IloI47: x387 = 1 <-> x391 - x384  = 4
 IloI48: x393 = 1 <-> x397 - x384  = 3
 IloI49: x399 = 1 <-> x403 - x384  = 5
 IloI50: x405 = 1 <-> x384 - x383  = 2
 IloI51: x409 = 1 <-> x391 - x383  = 3
 IloI52: x413 = 1 <-> x397 - x383  = 2
 IloI53: x417 = 1 <-> x403 - x383  = 3
 IloI54: x421 = 1 <-> x384 - x391  = 4
 IloI55: x425 = 1 <-> x383 - x391  = 3
 IloI56: x429 = 1 <-> x397 - x391  = 1
 IloI57: x433 = 1 <-> x403 - x391  = 2
 IloI58: x437 = 1 <-> x384 - x397  = 3
 IloI59: x441 = 1 <-> x383 - x397  = 2
 IloI60: x445 = 1 <-> x391 - x397  = 1
 IloI61: x449 = 1 <-> x403 - x397  = 3
 IloI62: x453 = 1 <-> x384  = 4
 IloI63: x457 = 1 <-> x383  = 1
 IloI64: x461 = 1 <-> x391  = 2
 IloI65: x465 = 1 <-> x397  = 3
 IloI66: x469 = 1 <-> x64 - x223  = -5
 IloI67: x470 = 1 <-> x223 >= 5
 IloI68: x473 = 1 <-> x65 - x313  = -5
 IloI69: x474 = 1 <-> x313 >= 5
 IloI70: x477 = 1 <-> x66 - x403  = -5
 IloI71: x478 = 1 <-> x403 >= 5
Bounds
 0 <= x1 <= 1
 0 <= x2 <= 1
 0 <= x3 <= 1
 0 <= x4 <= 1
 0 <= x5 <= 1
 0 <= x6 <= 1
 0 <= x7 <= 1
 0 <= x8 <= 1
 0 <= x9 <= 1
 0 <= x10 <= 1
 0 <= x11 <= 1
 0 <= x12 <= 1
 0 <= x13 <= 1
 0 <= x14 <= 1
 0 <= x15 <= 1
 0 <= x16 <= 1
 0 <= x17 <= 1
 0 <= x18 <= 1
 0 <= x19 <= 1
 0 <= x20 <= 1
 0 <= x21 <= 1
 0 <= x22 <= 1
 0 <= x23 <= 1
 0 <= x24 <= 1
 0 <= x25 <= 1
 0 <= x26 <= 1
 0 <= x27 <= 1
 0 <= x28 <= 1
 0 <= x29 <= 1
 0 <= x30 <= 1
 0 <= x31 <= 1
 0 <= x32 <= 1
 0 <= x33 <= 1
 0 <= x34 <= 1
 0 <= x35 <= 1
 0 <= x36 <= 1
 0 <= x37 <= 1
 0 <= x38 <= 1
 0 <= x39 <= 1
 0 <= x40 <= 1
 0 <= x41 <= 1
 0 <= x42 <= 1
 0 <= x43 <= 1
 0 <= x44 <= 1
 0 <= x45 <= 1
 0 <= x46 <= 1
 0 <= x47 <= 1
 0 <= x48 <= 1
 0 <= x49 <= 1
 0 <= x50 <= 1
 0 <= x51 <= 1
 0 <= x52 <= 1
 0 <= x53 <= 1
 0 <= x54 <= 1
 0 <= x55 <= 1
 0 <= x56 <= 1
 0 <= x57 <= 1
 0 <= x58 <= 1
 0 <= x59 <= 1
 0 <= x60 <= 1
 0 <= x61 <= 1
 0 <= x62 <= 1
 0 <= x63 <= 1
 0 <= x133 <= 1
 0 <= x135 <= 1
 0 <= x137 <= 1
 0 <= x139 <= 1
 0 <= x140 <= 1
 0 <= x141 <= 1
 0 <= x145 <= 1
 0 <= x146 <= 1
 0 <= x147 <= 1
 0 <= x151 <= 1
 0 <= x152 <= 1
 0 <= x153 <= 1
 0 <= x157 <= 1
 0 <= x158 <= 1
 0 <= x159 <= 1
 0 <= x163 <= 1
 0 <= x164 <= 1
 0 <= x167 <= 1
 0 <= x168 <= 1
 0 <= x171 <= 1
 0 <= x172 <= 1
 0 <= x175 <= 1
 0 <= x176 <= 1
 0 <= x179 <= 1
 0 <= x180 <= 1
 0 <= x183 <= 1
 0 <= x184 <= 1
 0 <= x187 <= 1
 0 <= x188 <= 1
 0 <= x191 <= 1
 0 <= x192 <= 1
 0 <= x195 <= 1
 0 <= x196 <= 1
 0 <= x199 <= 1
 0 <= x200 <= 1
 0 <= x207 <= 1
 0 <= x208 <= 1
 0 <= x213 <= 1
 0 <= x214 <= 1
 0 <= x219 <= 1
 0 <= x220 <= 1
 0 <= x225 <= 1
 0 <= x226 <= 1
 0 <= x229 <= 1
 0 <= x230 <= 1
 0 <= x233 <= 1
 0 <= x234 <= 1
 0 <= x237 <= 1
 0 <= x238 <= 1
 0 <= x241 <= 1
 0 <= x242 <= 1
 0 <= x245 <= 1
 0 <= x246 <= 1
 0 <= x249 <= 1
 0 <= x250 <= 1
 0 <= x253 <= 1
 0 <= x254 <= 1
 0 <= x257 <= 1
 0 <= x258 <= 1
 0 <= x261 <= 1
 0 <= x262 <= 1
 0 <= x265 <= 1
 0 <= x266 <= 1
 0 <= x269 <= 1
 0 <= x270 <= 1
 0 <= x273 <= 1
 0 <= x274 <= 1
 0 <= x277 <= 1
 0 <= x278 <= 1
 0 <= x281 <= 1
 0 <= x282 <= 1
 0 <= x285 <= 1
 0 <= x286 <= 1
 0 <= x289 <= 1
 0 <= x290 <= 1
 0 <= x297 <= 1
 0 <= x298 <= 1
 0 <= x303 <= 1
 0 <= x304 <= 1
 0 <= x309 <= 1
 0 <= x310 <= 1
 0 <= x315 <= 1
 0 <= x316 <= 1
 0 <= x319 <= 1
 0 <= x320 <= 1
 0 <= x323 <= 1
 0 <= x324 <= 1
 0 <= x327 <= 1
 0 <= x328 <= 1
 0 <= x331 <= 1
 0 <= x332 <= 1
 0 <= x335 <= 1
 0 <= x336 <= 1
 0 <= x339 <= 1
 0 <= x340 <= 1
 0 <= x343 <= 1
 0 <= x344 <= 1
 0 <= x347 <= 1
 0 <= x348 <= 1
 0 <= x351 <= 1
 0 <= x352 <= 1
 0 <= x355 <= 1
 0 <= x356 <= 1
 0 <= x359 <= 1
 0 <= x360 <= 1
 0 <= x363 <= 1
 0 <= x364 <= 1
 0 <= x367 <= 1
 0 <= x368 <= 1
 0 <= x371 <= 1
 0 <= x372 <= 1
 0 <= x375 <= 1
 0 <= x376 <= 1
 0 <= x379 <= 1
 0 <= x380 <= 1
 0 <= x387 <= 1
 0 <= x388 <= 1
 0 <= x393 <= 1
 0 <= x394 <= 1
 0 <= x399 <= 1
 0 <= x400 <= 1
 0 <= x405 <= 1
 0 <= x406 <= 1
 0 <= x409 <= 1
 0 <= x410 <= 1
 0 <= x413 <= 1
 0 <= x414 <= 1
 0 <= x417 <= 1
 0 <= x418 <= 1
 0 <= x421 <= 1
 0 <= x422 <= 1
 0 <= x425 <= 1
 0 <= x426 <= 1
 0 <= x429 <= 1
 0 <= x430 <= 1
 0 <= x433 <= 1
 0 <= x434 <= 1
 0 <= x437 <= 1
 0 <= x438 <= 1
 0 <= x441 <= 1
 0 <= x442 <= 1
 0 <= x445 <= 1
 0 <= x446 <= 1
 0 <= x449 <= 1
 0 <= x450 <= 1
 0 <= x453 <= 1
 0 <= x454 <= 1
 0 <= x457 <= 1
 0 <= x458 <= 1
 0 <= x461 <= 1
 0 <= x462 <= 1
 0 <= x465 <= 1
 0 <= x466 <= 1
 0 <= x469 <= 1
 0 <= x470 <= 1
 0 <= x473 <= 1
 0 <= x474 <= 1
 0 <= x477 <= 1
 0 <= x478 <= 1
Binaries
 x1  x2  x3  x4  x5  x6  x7  x8  x9  x10  x11  x12  x13  x14  x15  x16  x17 
 x18  x19  x20  x21  x22  x23  x24  x25  x26  x27  x28  x29  x30  x31  x32 
 x33  x34  x35  x36  x37  x38  x39  x40  x41  x42  x43  x44  x45  x46  x47 
 x48  x49  x50  x51  x52  x53  x54  x55  x56  x57  x58  x59  x60  x61  x62 
 x63  x133  x135  x137  x139  x140  x141  x145  x146  x147  x151  x152  x153 
 x157  x158  x159  x163  x164  x167  x168  x171  x172  x175  x176  x179  x180 
 x183  x184  x187  x188  x191  x192  x195  x196  x199  x200  x207  x208  x213 
 x214  x219  x220  x225  x226  x229  x230  x233  x234  x237  x238  x241  x242 
 x245  x246  x249  x250  x253  x254  x257  x258  x261  x262  x265  x266  x269 
 x270  x273  x274  x277  x278  x281  x282  x285  x286  x289  x290  x297  x298 
 x303  x304  x309  x310  x315  x316  x319  x320  x323  x324  x327  x328  x331 
 x332  x335  x336  x339  x340  x343  x344  x347  x348  x351  x352  x355  x356 
 x359  x360  x363  x364  x367  x368  x371  x372  x375  x376  x379  x380  x387 
 x388  x393  x394  x399  x400  x405  x406  x409  x410  x413  x414  x417  x418 
 x421  x422  x425  x426  x429  x430  x433  x434  x437  x438  x441  x442  x445 
 x446  x449  x450  x453  x454  x457  x458  x461  x462  x465  x466  x469  x470 
 x473  x474  x477  x478 
End
